25 50
1 2 3
1 6 1
2 3 3
2 7 2
3 4 4
3 8 3
4 5 2
4 9 3
5 10 1
6 7 3
6 11 5
7 8 2
7 12 3
8 9 5
8 13 1
9 10 5
9 14 1
10 15 4
11 12 4
11 16 2
12 13 2
12 17 2
13 14 3
13 18 2
14 15 1
14 19 3
15 20 4
16 17 2
16 21 4
17 18 5
17 22 2
18 19 3
18 23 5
19 20 4
19 24 3
20 25 1
21 22 2
22 23 3
23 24 3
24 25 3
1 21 4
2 22 3
3 23 1
4 24 2
5 25 1
1 5 1
6 10 3
11 15 2
16 20 4
21 25 5
